c 
c G(n,p) graph
c graph gen seed     : 25547
c number of vertices : 80
c max number of edges: 3160
c edge probability   : 0.200000
c data structure     : sparse
c
c           Graph Stats
c number of vertices  : 80
c nonisolated vertices: 80
c number of edges     : 661
c edge density        : 0.209177
c max degree          : 24
c avg degree          : 16.52
c min degree          : 8
p col 80 661
e 1 78
e 1 77
e 1 73
e 1 69
e 1 56
e 1 47
e 1 42
e 1 38
e 1 33
e 1 29
e 1 27
e 1 22
e 1 19
e 1 17
e 1 11
e 1 5
e 2 77
e 2 69
e 2 64
e 2 62
e 2 49
e 2 48
e 2 40
e 2 38
e 2 33
e 2 29
e 2 28
e 2 24
e 2 21
e 2 17
e 2 14
e 2 11
e 3 76
e 3 68
e 3 58
e 3 56
e 3 55
e 3 52
e 3 50
e 3 48
e 3 47
e 3 43
e 3 41
e 3 40
e 3 31
e 3 24
e 3 23
e 3 22
e 3 21
e 3 17
e 3 16
e 3 13
e 3 4
e 4 77
e 4 71
e 4 70
e 4 68
e 4 63
e 4 55
e 4 52
e 4 48
e 4 47
e 4 46
e 4 36
e 4 35
e 4 34
e 4 31
e 4 26
e 4 25
e 4 21
e 4 18
e 4 15
e 4 12
e 4 8
e 5 75
e 5 67
e 5 66
e 5 63
e 5 57
e 5 54
e 5 49
e 5 47
e 5 39
e 5 38
e 5 36
e 5 31
e 5 30
e 5 24
e 5 22
e 5 21
e 5 14
e 5 11
e 5 8
e 6 76
e 6 63
e 6 56
e 6 51
e 6 45
e 6 38
e 6 32
e 6 28
e 6 8
e 6 7
e 7 80
e 7 79
e 7 76
e 7 73
e 7 72
e 7 66
e 7 65
e 7 62
e 7 49
e 7 47
e 7 46
e 7 45
e 7 37
e 7 32
e 7 26
e 7 25
e 7 19
e 7 17
e 7 14
e 7 12
e 8 79
e 8 78
e 8 76
e 8 75
e 8 59
e 8 54
e 8 46
e 8 43
e 8 37
e 8 36
e 8 34
e 8 21
e 8 11
e 9 80
e 9 79
e 9 71
e 9 63
e 9 62
e 9 56
e 9 48
e 9 43
e 9 34
e 9 32
e 9 31
e 9 25
e 9 23
e 9 20
e 9 17
e 10 79
e 10 65
e 10 61
e 10 49
e 10 47
e 10 45
e 10 44
e 10 41
e 10 38
e 10 37
e 10 32
e 10 31
e 10 22
e 10 13
e 10 12
e 11 75
e 11 72
e 11 63
e 11 62
e 11 58
e 11 56
e 11 52
e 11 50
e 11 46
e 11 38
e 11 35
e 11 32
e 11 26
e 11 22
e 11 18
e 12 79
e 12 77
e 12 74
e 12 73
e 12 66
e 12 55
e 12 48
e 12 32
e 12 26
e 12 23
e 12 18
e 12 15
e 13 80
e 13 77
e 13 70
e 13 68
e 13 67
e 13 61
e 13 53
e 13 52
e 13 51
e 13 49
e 13 39
e 13 33
e 13 24
e 13 22
e 13 21
e 14 77
e 14 76
e 14 74
e 14 71
e 14 52
e 14 50
e 14 49
e 14 44
e 14 42
e 14 41
e 14 30
e 14 29
e 14 22
e 14 20
e 14 19
e 15 73
e 15 71
e 15 69
e 15 56
e 15 55
e 15 47
e 15 38
e 15 37
e 15 36
e 15 26
e 15 24
e 15 17
e 16 80
e 16 77
e 16 69
e 16 62
e 16 59
e 16 47
e 16 45
e 16 41
e 16 36
e 16 32
e 16 28
e 16 18
e 17 74
e 17 73
e 17 71
e 17 69
e 17 53
e 17 51
e 17 48
e 17 46
e 17 42
e 17 27
e 17 20
e 18 79
e 18 78
e 18 66
e 18 55
e 18 49
e 18 43
e 18 33
e 18 32
e 18 28
e 18 23
e 18 21
e 19 76
e 19 74
e 19 73
e 19 65
e 19 64
e 19 61
e 19 60
e 19 48
e 19 37
e 19 33
e 19 30
e 19 22
e 20 79
e 20 72
e 20 59
e 20 57
e 20 53
e 20 51
e 20 48
e 20 47
e 20 45
e 20 44
e 20 42
e 20 41
e 20 39
e 20 36
e 20 32
e 20 31
e 20 29
e 20 27
e 20 26
e 20 24
e 20 21
e 21 61
e 21 58
e 21 55
e 21 50
e 21 47
e 21 40
e 21 37
e 21 34
e 22 76
e 22 70
e 22 69
e 22 68
e 22 64
e 22 62
e 22 60
e 22 59
e 22 57
e 22 55
e 22 52
e 22 30
e 22 27
e 22 24
e 23 74
e 23 70
e 23 69
e 23 68
e 23 67
e 23 63
e 23 57
e 23 55
e 23 43
e 23 41
e 23 40
e 23 36
e 23 34
e 23 33
e 23 32
e 23 27
e 23 25
e 24 77
e 24 75
e 24 70
e 24 67
e 24 64
e 24 56
e 24 55
e 24 39
e 24 31
e 24 28
e 24 26
e 25 78
e 25 72
e 25 71
e 25 66
e 25 43
e 25 39
e 25 29
e 25 28
e 26 72
e 26 65
e 26 59
e 26 54
e 26 49
e 26 47
e 26 42
e 26 32
e 26 29
e 26 27
e 27 80
e 27 72
e 27 69
e 27 62
e 27 35
e 27 34
e 27 33
e 27 29
e 28 75
e 28 74
e 28 69
e 28 68
e 28 67
e 28 57
e 28 55
e 28 47
e 28 45
e 28 40
e 28 35
e 28 32
e 28 29
e 29 75
e 29 71
e 29 70
e 29 68
e 29 64
e 29 63
e 29 61
e 29 58
e 29 47
e 29 43
e 29 42
e 29 40
e 29 33
e 30 79
e 30 77
e 30 72
e 30 68
e 30 64
e 30 63
e 30 61
e 30 56
e 30 49
e 30 39
e 30 38
e 30 37
e 30 35
e 30 31
e 31 75
e 31 69
e 31 65
e 31 63
e 31 59
e 31 46
e 31 45
e 32 80
e 32 75
e 32 56
e 32 52
e 32 36
e 32 33
e 33 80
e 33 79
e 33 73
e 33 66
e 33 64
e 33 63
e 33 62
e 33 57
e 33 56
e 33 54
e 33 48
e 34 78
e 34 76
e 34 74
e 34 73
e 34 72
e 34 66
e 34 56
e 34 53
e 34 45
e 34 41
e 35 80
e 35 79
e 35 73
e 35 61
e 35 60
e 35 56
e 35 53
e 35 50
e 35 48
e 35 46
e 35 39
e 35 38
e 35 36
e 36 80
e 36 76
e 36 66
e 36 65
e 36 64
e 36 55
e 36 49
e 36 46
e 36 42
e 36 38
e 37 71
e 37 70
e 37 60
e 37 57
e 37 48
e 37 45
e 37 44
e 37 40
e 38 80
e 38 61
e 38 59
e 38 56
e 38 52
e 38 51
e 38 39
e 39 76
e 39 75
e 39 70
e 39 62
e 39 61
e 39 58
e 39 51
e 39 43
e 40 72
e 40 71
e 40 60
e 40 59
e 40 46
e 40 45
e 40 41
e 41 80
e 41 76
e 41 75
e 41 69
e 41 64
e 41 62
e 41 60
e 41 54
e 41 52
e 41 51
e 41 49
e 41 48
e 42 78
e 42 76
e 42 54
e 42 52
e 43 67
e 43 55
e 43 54
e 43 53
e 43 48
e 43 47
e 44 79
e 44 77
e 44 68
e 44 67
e 44 63
e 44 58
e 44 47
e 45 76
e 45 67
e 45 61
e 45 52
e 45 47
e 45 46
e 46 80
e 46 72
e 46 68
e 46 67
e 46 61
e 46 57
e 46 51
e 47 79
e 47 67
e 47 60
e 47 59
e 47 56
e 48 74
e 48 72
e 48 69
e 48 66
e 48 65
e 48 54
e 48 51
e 48 50
e 49 79
e 49 75
e 49 71
e 49 56
e 49 54
e 49 53
e 50 58
e 50 57
e 50 52
e 50 51
e 51 79
e 51 71
e 51 70
e 51 68
e 51 66
e 51 64
e 51 53
e 52 78
e 52 73
e 52 72
e 52 68
e 52 65
e 52 64
e 52 61
e 52 53
e 53 74
e 53 72
e 53 68
e 53 61
e 53 60
e 53 55
e 53 54
e 54 75
e 54 73
e 55 70
e 55 66
e 55 65
e 56 74
e 56 71
e 56 58
e 56 57
e 57 80
e 57 77
e 57 70
e 57 66
e 57 64
e 57 63
e 57 61
e 58 80
e 58 79
e 58 77
e 58 64
e 58 62
e 59 70
e 59 63
e 60 77
e 60 67
e 60 64
e 61 77
e 61 70
e 61 68
e 61 66
e 61 65
e 61 64
e 62 71
e 62 69
e 62 68
e 63 80
e 63 75
e 63 74
e 63 70
e 63 66
e 64 80
e 64 75
e 64 74
e 64 73
e 64 65
e 65 73
e 66 79
e 66 75
e 66 72
e 66 70
e 66 68
e 67 77
e 67 71
e 68 79
e 68 77
e 69 77
e 69 76
e 69 72
e 69 70
e 70 73
e 71 75
e 72 79
e 72 75
e 75 79
e 75 76
e 76 79
e 76 78
e 77 79
e 79 80
